10	5
0	3	1	2	3
1	1	8
2	2	9	10
3	1	5
4	1	8
5	1	7
6	1	4
7	0
8	2	10	9
9	1	11
10	1	11
11	0
0	0	0	0	0	0	0
1	8	3	1	5	2	5
2	10	5	4	5	2	2
3	8	1	3	3	5	4
4	10	3	3	4	3	2
5	2	4	5	4	3	5
6	4	5	5	1	3	5
7	10	5	5	3	3	3
8	4	3	2	3	4	5
9	10	5	5	5	5	5
10	1	4	5	2	4	4
11	0	0	0	0	0	0
7	8	7	6	7
